out/bwp_8_13_1_lp.out
17
0 0    4 3
0 4    4 7
0 8    3 12
4 8    7 12
3 13    7 16
5 6    7 7
5 0    6 1
6 2    7 3
6 4    7 5
7 0    7 1
5 2    5 3
5 4    5 5
0 13    2 15
