out/bwp_8_13_1_lp.log
Tried aggregator 2 times.
MIP Presolve eliminated 17 rows and 5 columns.
MIP Presolve modified 324 coefficients.
Aggregator did 324 substitutions.
Reduced MIP has 1742 rows, 1584 columns, and 4353 nonzeros.
Reduced MIP has 945 binaries, 27 generals, 0 SOSs, and 312 indicators.
Presolve time = 0.01 sec. (5.26 ticks)
Probing fixed 48 vars, tightened 362 bounds.
Probing time = 0.06 sec. (20.37 ticks)
Tried aggregator 3 times.
MIP Presolve eliminated 71 rows and 68 columns.
MIP Presolve modified 812 coefficients.
Aggregator did 602 substitutions.
Reduced MIP has 1069 rows, 914 columns, and 3230 nonzeros.
Reduced MIP has 728 binaries, 186 generals, 0 SOSs, and 280 indicators.
Presolve time = 0.02 sec. (6.33 ticks)
Probing fixed 0 vars, tightened 97 bounds.
Probing time = 0.02 sec. (7.14 ticks)
Tried aggregator 1 time.
Reduced MIP has 1069 rows, 914 columns, and 3230 nonzeros.
Reduced MIP has 728 binaries, 186 generals, 0 SOSs, and 280 indicators.
Presolve time = 0.00 sec. (1.66 ticks)
Probing fixed 0 vars, tightened 1 bounds.
Probing time = 0.01 sec. (3.87 ticks)
Clique table members: 2540.
MIP emphasis: balance optimality and feasibility.
MIP search method: dynamic search.
Parallel mode: deterministic, using up to 4 threads.
Root relaxation solution time = 0.01 sec. (2.84 ticks)

        Nodes                                         Cuts/
   Node  Left     Objective  IInf  Best Integer    Best Bound    ItCnt     Gap

      0     0       17.0000   399                     17.0000      323         
*     0+    0                           43.0000       17.0000      372   60.47%
      0     0       17.0000   223       43.0000      Cuts: 41      372   60.47%
      0     0       17.0000   161       43.0000     Cuts: 123      459   60.47%
      0     0       17.0000   166       43.0000      Cuts: 52      508   60.47%
      0     0       17.0000   197       43.0000      Cuts: 41      536   60.47%
*     0+    0                           18.0000       17.0000      536    5.56%

Repeating presolve.
Tried aggregator 2 times.
MIP Presolve eliminated 432 rows and 350 columns.
MIP Presolve modified 532 coefficients.
Aggregator did 11 substitutions.
Reduced MIP has 629 rows, 553 columns, and 1960 nonzeros.
Reduced MIP has 379 binaries, 174 generals, 0 SOSs, and 277 indicators.
Presolve time = 0.01 sec. (3.35 ticks)
Probing fixed 0 vars, tightened 82 bounds.
Probing time = 0.01 sec. (2.95 ticks)
Tried aggregator 1 time.
MIP Presolve eliminated 3 rows and 0 columns.
MIP Presolve modified 94 coefficients.
Reduced MIP has 626 rows, 553 columns, and 1954 nonzeros.
Reduced MIP has 379 binaries, 174 generals, 0 SOSs, and 277 indicators.
Presolve time = 0.00 sec. (1.03 ticks)
Represolve time = 0.03 sec. (9.07 ticks)
Probing time = 0.01 sec. (2.06 ticks)
Clique table members: 793.
MIP emphasis: balance optimality and feasibility.
MIP search method: dynamic search.
Parallel mode: deterministic, using up to 4 threads.
Root relaxation solution time = 0.00 sec. (2.08 ticks)

        Nodes                                         Cuts/
   Node  Left     Objective  IInf  Best Integer    Best Bound    ItCnt     Gap

*     0+    0                           18.0000       17.0000      713    5.56%
      0     0       17.0000   245       18.0000       17.0000      713    5.56%
      0     0       17.0000    20       18.0000       Cuts: 5      717    5.56%
      0     0       17.0000   104       18.0000      Cuts: 48      742    5.56%
      0     0       17.0000    67       18.0000      Cuts: 36      763    5.56%
      0     0       17.0000    86       18.0000      Cuts: 23      796    5.56%
*     0+    0                           17.0000       17.0000      796    0.00%
      0     0        cutoff             17.0000       17.0000      796    0.00%
Elapsed time = 0.66 sec. (244.16 ticks, tree = 0.00 MB, solutions = 3)

Clique cuts applied:  11
Cover cuts applied:  12
Implied bound cuts applied:  27
Mixed integer rounding cuts applied:  2
Zero-half cuts applied:  5
Lift and project cuts applied:  4
Gomory fractional cuts applied:  7

Root node processing (before b&c):
  Real time             =    0.67 sec. (244.23 ticks)
Parallel b&c, 4 threads:
  Real time             =    0.00 sec. (0.00 ticks)
  Sync time (average)   =    0.00 sec.
  Wait time (average)   =    0.00 sec.
                          ------------
Total (root+branch&cut) =    0.67 sec. (244.23 ticks)
